 1000    378   0
 1000 450493  34
 1350   1000  46
15500    140  51
15500    297  77
15500    726  30
  166 119140 114
  218  37889  60
  327  21865  16
  350   1000  16
  479  20000  26
  560  19815  42
 6355    657  41
 6355    911  18
